MARKOV
229
 2 2 2 2 2 2 2 2 2 2 2 2 2 2 2 2 2 2 2 2 2 2 2 2 2 2 2 2 2 2 2 2 2 2 2 2 2 2 2 2 2 2 2 2 2 2 2 2 2 2 2 2 2 2 2 2 2 2 2 2 2 2 2 2 2 2 2 2 2 2 2 2 2 2 2 2 2 2 2 2 2 2 2 2 2 2 2 2 2 2 2 2 2 2 2 2 2 2 2 2 2 2 2 2 2 2 2 2 2 2 2 2 2 2 2 2 2 2 2 2 2 2 2 2 2 2 2 2 2 2 2 2 2 2 2 2 2 2 2 2 2 2 2 2 2 2 2 2 2 2 2 2 2 2 2 2 2 2 2 2 2 2 2 2 2 2 2 2 2 2 2 2 2 2 2 2 2 2 2 2 2 2 2 2 2 2 2 2 2 2 2 2 2 2 2 2 2 2 2 2 2 2 2 2 2 2 2 2 2 2 2 2 2 2 2 2 2 2 2 2 2 2 2 2 2 2 2 2 2
854
1	0 
1	1 
1	2 
1	3 
1	4 
1	5 
1	6 
1	7 
1	8 
1	9 
1	10 
1	11 
1	12 
1	13 
1	14 
1	15 
1	16 
1	17 
1	18 
1	19 
1	20 
1	21 
1	22 
1	23 
1	24 
1	25 
1	26 
1	27 
1	28 
1	29 
1	30 
1	31 
1	32 
1	33 
1	34 
1	35 
1	36 
1	37 
1	38 
1	39 
1	40 
1	41 
1	42 
1	43 
1	44 
1	45 
1	46 
1	47 
1	48 
1	49 
1	50 
1	51 
1	52 
1	53 
1	54 
1	55 
1	56 
1	57 
1	58 
1	59 
1	60 
1	61 
1	62 
1	63 
1	64 
1	65 
1	66 
1	67 
1	68 
1	69 
1	70 
1	71 
1	72 
1	73 
1	74 
1	75 
1	76 
1	77 
1	78 
1	79 
1	80 
1	81 
1	82 
1	83 
1	84 
1	85 
1	86 
1	87 
1	88 
1	89 
1	90 
1	91 
1	92 
1	93 
1	94 
1	95 
1	96 
1	97 
1	98 
1	99 
1	100 
1	101 
1	102 
1	103 
1	104 
1	105 
1	106 
1	107 
1	108 
1	109 
1	110 
1	111 
1	112 
1	113 
1	114 
1	115 
1	116 
1	117 
1	118 
1	119 
1	120 
1	121 
1	122 
1	123 
1	124 
1	125 
1	126 
1	127 
1	128 
1	129 
1	130 
1	131 
1	132 
1	133 
1	134 
1	135 
1	136 
1	137 
1	138 
1	139 
1	140 
1	141 
1	142 
1	143 
1	144 
1	145 
1	146 
1	147 
1	148 
1	149 
1	150 
1	151 
1	152 
1	153 
1	154 
1	155 
1	156 
1	157 
1	158 
1	159 
1	160 
1	161 
1	162 
1	163 
1	164 
1	165 
1	166 
1	167 
1	168 
1	169 
1	170 
1	171 
1	172 
1	173 
1	174 
1	175 
1	176 
1	177 
1	178 
1	179 
1	180 
1	181 
1	182 
1	183 
1	184 
1	185 
1	186 
1	187 
1	188 
1	189 
1	190 
1	191 
1	192 
1	193 
1	194 
1	195 
1	196 
1	197 
1	198 
1	199 
1	200 
1	201 
1	202 
1	203 
1	204 
1	205 
1	206 
1	207 
1	208 
1	209 
1	210 
1	211 
1	212 
1	213 
1	214 
1	215 
1	216 
1	217 
1	218 
1	219 
1	220 
1	221 
1	222 
1	223 
1	224 
1	225 
1	226 
1	227 
1	228 
2	1 16 
2	1 17 
2	1 104 
2	1 105 
2	1 153 
2	1 154 
2	2 3 
2	2 4 
2	2 53 
2	2 55 
2	2 193 
2	3 4 
2	3 5 
2	3 8 
2	3 192 
2	3 193 
2	4 5 
2	4 6 
2	4 52 
2	4 53 
2	5 6 
2	5 8 
2	5 10 
2	5 189 
2	6 52 
2	6 189 
2	6 191 
2	7 8 
2	7 108 
2	7 118 
2	7 119 
2	7 192 
2	7 194 
2	8 10 
2	8 115 
2	8 119 
2	8 192 
2	9 10 
2	9 37 
2	9 115 
2	9 116 
2	9 189 
2	9 211 
2	9 212 
2	10 115 
2	10 189 
2	11 12 
2	11 15 
2	11 51 
2	11 101 
2	11 102 
2	12 14 
2	12 15 
2	12 102 
2	12 170 
2	13 14 
2	13 15 
2	13 159 
2	13 167 
2	14 15 
2	14 167 
2	14 169 
2	14 170 
2	16 17 
2	16 84 
2	16 154 
2	16 203 
2	17 104 
2	17 197 
2	17 203 
2	18 21 
2	18 22 
2	18 23 
2	18 187 
2	18 188 
2	19 20 
2	19 23 
2	19 24 
2	19 29 
2	19 30 
2	20 24 
2	20 30 
2	20 224 
2	20 225 
2	21 23 
2	21 24 
2	21 186 
2	21 187 
2	21 226 
2	22 23 
2	22 26 
2	23 24 
2	23 26 
2	23 29 
2	24 225 
2	24 226 
2	25 27 
2	25 28 
2	25 31 
2	26 27 
2	26 28 
2	26 29 
2	27 28 
2	27 29 
2	27 31 
2	27 32 
2	29 30 
2	29 32 
2	30 32 
2	30 70 
2	30 82 
2	30 224 
2	31 32 
2	31 81 
2	32 81 
2	32 82 
2	33 34 
2	33 36 
2	33 41 
2	33 214 
2	34 35 
2	34 36 
2	34 214 
2	34 215 
2	35 36 
2	35 37 
2	35 40 
2	35 212 
2	35 215 
2	36 40 
2	36 41 
2	36 43 
2	37 40 
2	37 116 
2	37 212 
2	38 39 
2	38 40 
2	38 42 
2	38 43 
2	38 110 
2	38 111 
2	39 42 
2	39 111 
2	40 43 
2	40 110 
2	40 116 
2	41 43 
2	41 44 
2	41 45 
2	42 43 
2	42 44 
2	43 44 
2	44 45 
2	46 47 
2	46 48 
2	46 88 
2	46 89 
2	46 94 
2	46 98 
2	47 89 
2	47 94 
2	47 97 
2	47 174 
2	48 88 
2	48 98 
2	49 50 
2	49 51 
2	49 87 
2	49 101 
2	49 103 
2	50 217 
2	51 101 
2	52 53 
2	52 163 
2	52 191 
2	53 55 
2	53 165 
2	54 56 
2	54 146 
2	54 205 
2	54 206 
2	54 222 
2	55 56 
2	55 164 
2	55 165 
2	55 193 
2	55 195 
2	56 164 
2	56 195 
2	56 205 
2	56 222 
2	57 139 
2	57 143 
2	57 182 
2	57 196 
2	57 199 
2	58 59 
2	58 60 
2	58 61 
2	58 65 
2	58 168 
2	59 60 
2	59 61 
2	59 134 
2	59 165 
2	60 65 
2	60 66 
2	60 163 
2	60 165 
2	61 92 
2	61 134 
2	61 135 
2	61 168 
2	62 63 
2	62 64 
2	62 95 
2	62 97 
2	62 172 
2	62 173 
2	62 174 
2	63 64 
2	63 66 
2	63 95 
2	63 161 
2	64 65 
2	64 66 
2	64 171 
2	64 173 
2	65 66 
2	65 168 
2	65 171 
2	66 161 
2	66 163 
2	67 68 
2	67 69 
2	67 70 
2	67 78 
2	67 79 
2	67 80 
2	67 228 
2	68 71 
2	68 74 
2	68 79 
2	68 220 
2	68 223 
2	68 228 
2	69 70 
2	69 224 
2	69 227 
2	69 228 
2	70 80 
2	70 82 
2	70 224 
2	71 73 
2	71 74 
2	71 107 
2	71 194 
2	71 223 
2	72 73 
2	72 75 
2	72 76 
2	72 106 
2	73 74 
2	73 75 
2	73 106 
2	73 107 
2	73 109 
2	74 75 
2	74 79 
2	75 76 
2	75 79 
2	76 77 
2	76 79 
2	77 78 
2	77 79 
2	77 83 
2	78 79 
2	78 80 
2	78 83 
2	80 81 
2	80 82 
2	80 83 
2	81 82 
2	81 83 
2	84 85 
2	84 86 
2	84 140 
2	84 141 
2	84 154 
2	84 203 
2	85 86 
2	85 141 
2	85 155 
2	85 157 
2	86 153 
2	86 154 
2	86 157 
2	86 158 
2	87 89 
2	87 103 
2	87 174 
2	87 217 
2	88 89 
2	88 90 
2	88 218 
2	89 90 
2	89 174 
2	89 217 
2	90 217 
2	90 218 
2	90 219 
2	91 92 
2	91 135 
2	91 144 
2	91 156 
2	91 167 
2	91 169 
2	91 201 
2	92 135 
2	92 168 
2	92 169 
2	93 94 
2	93 95 
2	93 96 
2	93 98 
2	93 160 
2	93 162 
2	94 95 
2	94 97 
2	94 98 
2	95 97 
2	95 160 
2	95 161 
2	96 98 
2	96 162 
2	97 174 
2	99 100 
2	99 101 
2	99 102 
2	99 168 
2	99 170 
2	99 171 
2	100 101 
2	100 103 
2	100 171 
2	100 172 
2	100 173 
2	101 102 
2	101 103 
2	102 170 
2	103 172 
2	103 174 
2	104 105 
2	104 180 
2	104 197 
2	104 198 
2	105 180 
2	106 109 
2	106 120 
2	106 121 
2	107 108 
2	107 109 
2	107 194 
2	108 109 
2	108 118 
2	108 121 
2	108 122 
2	109 121 
2	110 111 
2	110 113 
2	110 116 
2	110 117 
2	111 112 
2	111 113 
2	112 113 
2	112 114 
2	112 123 
2	113 114 
2	113 117 
2	114 117 
2	114 118 
2	114 119 
2	114 122 
2	114 123 
2	115 116 
2	115 117 
2	115 119 
2	116 117 
2	117 119 
2	118 119 
2	118 122 
2	120 121 
2	120 123 
2	121 122 
2	121 123 
2	122 123 
2	124 125 
2	124 126 
2	124 127 
2	124 162 
2	125 127 
2	125 214 
2	125 215 
2	126 127 
2	126 160 
2	126 162 
2	126 213 
2	126 216 
2	127 215 
2	127 216 
2	128 129 
2	128 130 
2	128 133 
2	128 142 
2	128 144 
2	128 166 
2	129 130 
2	129 131 
2	129 142 
2	130 131 
2	130 166 
2	130 178 
2	130 210 
2	131 137 
2	131 142 
2	131 145 
2	131 178 
2	132 133 
2	132 134 
2	132 135 
2	132 144 
2	132 164 
2	133 144 
2	133 166 
2	134 135 
2	134 164 
2	134 165 
2	135 144 
2	136 137 
2	136 138 
2	136 143 
2	136 145 
2	136 152 
2	136 177 
2	137 145 
2	137 177 
2	137 178 
2	138 139 
2	138 143 
2	138 151 
2	138 152 
2	139 143 
2	139 151 
2	140 141 
2	140 142 
2	140 145 
2	140 203 
2	140 204 
2	141 142 
2	141 144 
2	141 155 
2	141 202 
2	142 144 
2	142 145 
2	143 145 
2	143 196 
2	143 200 
2	144 201 
2	144 202 
2	145 200 
2	145 204 
2	146 148 
2	146 149 
2	146 206 
2	146 221 
2	146 222 
2	147 148 
2	147 149 
2	147 150 
2	147 227 
2	147 228 
2	148 149 
2	148 150 
2	148 206 
2	148 207 
2	148 208 
2	149 220 
2	149 221 
2	149 228 
2	150 208 
2	150 225 
2	150 226 
2	150 227 
2	151 152 
2	151 175 
2	151 176 
2	152 176 
2	152 177 
2	152 179 
2	153 154 
2	153 158 
2	155 156 
2	155 157 
2	155 201 
2	155 202 
2	156 157 
2	156 159 
2	156 167 
2	156 201 
2	157 158 
2	157 159 
2	158 159 
2	159 167 
2	160 161 
2	160 162 
2	160 190 
2	160 213 
2	161 163 
2	161 190 
2	161 191 
2	163 165 
2	163 191 
2	164 165 
2	164 166 
2	164 205 
2	166 205 
2	166 210 
2	167 169 
2	168 169 
2	168 170 
2	168 171 
2	169 170 
2	171 173 
2	172 173 
2	172 174 
2	175 176 
2	175 187 
2	175 188 
2	176 179 
2	176 187 
2	177 178 
2	177 179 
2	177 209 
2	178 207 
2	178 209 
2	178 210 
2	179 185 
2	179 186 
2	179 187 
2	179 209 
2	180 181 
2	180 183 
2	180 184 
2	180 198 
2	181 183 
2	182 183 
2	182 184 
2	182 199 
2	183 184 
2	184 196 
2	184 198 
2	184 199 
2	185 186 
2	185 208 
2	185 209 
2	185 226 
2	186 187 
2	186 226 
2	187 188 
2	189 190 
2	189 191 
2	189 211 
2	190 191 
2	190 211 
2	190 213 
2	192 193 
2	192 194 
2	192 195 
2	193 195 
2	194 195 
2	194 223 
2	195 222 
2	195 223 
2	196 198 
2	196 199 
2	196 200 
2	197 198 
2	197 200 
2	197 203 
2	197 204 
2	198 200 
2	200 204 
2	201 202 
2	203 204 
2	205 206 
2	205 210 
2	206 207 
2	206 210 
2	207 208 
2	207 209 
2	207 210 
2	208 209 
2	208 226 
2	211 212 
2	211 213 
2	211 216 
2	212 215 
2	212 216 
2	213 216 
2	214 215 
2	215 216 
2	217 219 
2	218 219 
2	220 221 
2	220 223 
2	220 228 
2	221 222 
2	221 223 
2	222 223 
2	224 225 
2	224 227 
2	225 226 
2	225 227 
2	227 228 
0	

2
 0.252912 1
2
 0.863044 1
2
 1 0.281214
2
 1 0.492316
2
 1 0.279798
2
 1 0.575049
2
 1 0.117271
2
 1 0.249929
2
 1 0.430635
2
 1 0.161835
2
 1 0.419804
2
 1 0.254384
2
 1 0.162611
2
 1 0.0962363
2
 1 0.260376
2
 1 0.0722942
2
 1 0.111869
2
 1 0.402234
2
 1 0.0954001
2
 1 0.0995269
2
 1 0.248352
2
 1 0.339479
2
 1 0.153847
2
 1 0.118185
2
 1 0.219916
2
 1 0.143175
2
 1 0.072375
2
 1 0.107666
2
 1 0.0839937
2
 1 0.16749
2
 1 0.159346
2
 1 0.0780763
2
 1 0.100042
2
 1 0.0855442
2
 1 0.0779599
2
 1 0.224403
2
 1 0.0905556
2
 1 0.131679
2
 1 0.0842949
2
 1 0.081753
2
 1 0.0729262
2
 1 0.139124
2
 1 0.0941308
2
 1 0.0697319
2
 1 0.0863057
2
 1 0.044743
2
 0.54741 1
2
 0.739442 1
2
 1 0.32444
2
 1 0.158621
2
 1 0.130178
2
 1 0.125706
2
 1 0.427379
2
 1 0.558274
2
 0.829332 1
2
 0.98066 1
2
 1 0.76367
2
 0.870261 1
2
 0.379989 1
2
 0.954939 1
2
 0.955717 1
2
 0.248065 1
2
 1 0.611215
2
 0.843409 1
2
 0.348741 1
2
 0.577205 1
2
 0.612826 1
2
 1 0.288345
2
 1 0.406379
2
 1 0.00590151
2
 1 0.143707
2
 1 0.570313
2
 1 0.256101
2
 1 0.374132
2
 1 0.281342
2
 1 0.235552
2
 1 0.191644
2
 1 0.148082
2
 1 0.101549
2
 1 0.244232
2
 1 0.169964
2
 1 0.103481
2
 1 0.0760276
2
 1 0.140336
2
 0.680842 1
2
 1 0.290847
2
 1 0.190562
2
 1 0.140307
2
 1 0.057836
2
 1 0.330577
2
 1 0.143813
2
 0.150951 1
2
 0.0909905 1
2
 1 0.826587
2
 1 0.254845
2
 1 0.7393
2
 1 0.632643
2
 1 0.486523
2
 1 0.165147
2
 1 0.244517
2
 1 0.277229
2
 1 0.0768417
2
 1 0.190029
2
 1 0.120196
2
 1 0.107328
2
 1 0.189274
2
 1 0.178227
2
 1 0.381424
2
 1 0.274999
2
 1 0.265978
2
 1 0.179688
2
 1 0.0477161
2
 1 0.0676371
2
 1 0.179609
2
 1 0.255307
2
 1 0.208978
2
 1 0.147754
2
 1 0.247308
2
 1 0.455145
2
 1 0.334339
2
 1 0.213616
2
 1 0.144855
2
 1 0.243822
2
 1 0.240029
2
 1 0.058255
2
 1 0.131315
2
 1 0.0673831
2
 1 0.264452
2
 0.466593 1
2
 1 0.888531
2
 0.338293 1
2
 0.892529 1
2
 0.555863 1
2
 0.637404 1
2
 1 0.702999
2
 0.216499 1
2
 1 0.914703
2
 0.520886 1
2
 0.681551 1
2
 0.257496 1
2
 0.87006 1
2
 0.30434 1
2
 0.275419 1
2
 0.741548 1
2
 0.242948 1
2
 0.184659 1
2
 1 0.910746
2
 1 0.760152
2
 0.826878 1
2
 1 0.324864
2
 1 0.203474
2
 1 0.716197
2
 0.51477 1
2
 1 0.868959
2
 0.656901 1
2
 1 0.33507
2
 1 0.618086
2
 1 0.171556
2
 1 0.108101
2
 1 0.103017
2
 0.974992 1
2
 0.554537 1
2
 1 0.31384
2
 0.180027 1
2
 0.974497 1
2
 0.235234 1
2
 0.463987 1
2
 1 0.288895
2
 1 0.673388
2
 1 0.582835
2
 1 0.414788
2
 1 0.52929
2
 0.30042 1
2
 0.379684 1
2
 0.575529 1
2
 1 0.736074
2
 1 0.258506
2
 0.963878 1
2
 0.782925 1
2
 1 0.511132
2
 1 0.0890276
2
 1 0.11027
2
 1 0.123076
2
 1 0.0779575
2
 1 0.105316
2
 1 0.714209
2
 1 0.577158
2
 1 0.271008
2
 1 0.22099
2
 1 0.24816
2
 1 0.070124
2
 1 0.360494
2
 1 0.41224
2
 1 0.317658
2
 1 0.359232
2
 1 0.225012
2
 0.674545 1
2
 1 0.279652
2
 1 0.236035
2
 1 0.452164
2
 0.147596 1
2
 0.488654 1
2
 0.207966 1
2
 1 0.281238
2
 1 0.58678
2
 0.985737 1
2
 1 0.684062
2
 0.393968 1
2
 1 0.964824
2
 1 0.662388
2
 0.671165 1
2
 1 0.257792
2
 1 0.124292
2
 1 0.255394
2
 1 0.094972
2
 1 0.170038
2
 1 0.318801
2
 1 0.0448753
2
 1 0.0398425
2
 1 0.120429
2
 1 0.274589
2
 1 0.362465
2
 1 0.2296
2
 1 0.507985
2
 1 0.203777
2
 1 0.360753
2
 1 0.407352
2
 1 0.416101
2
 1 0.337239
4
 0.949263 0.2825 0.2825 1
4
 0.94901 0.28355 0.28355 1
4
 0.949229 0.284936 0.284936 1
4
 0.945771 0.283078 0.283078 1
4
 0.943173 0.276702 0.276702 1
4
 0.94726 0.280077 0.280077 1
4
 0.994575 0.29007 0.29007 1
4
 0.989655 0.28634 0.28634 1
4
 0.988055 0.287166 0.287166 1
4
 0.990971 0.290799 0.290799 1
4
 0.995283 0.293084 0.293084 1
4
 0.99195 0.286747 0.286747 1
4
 0.994635 0.287223 0.287223 1
4
 1 0.292333 0.292333 0.999225
4
 1 0.29504 0.29504 0.99857
4
 0.997591 0.293501 0.293501 1
4
 0.989715 0.28353 0.28353 1
4
 0.98474 0.280111 0.280111 1
4
 0.983227 0.280692 0.280692 1
4
 0.985448 0.283877 0.283877 1
4
 0.987405 0.280576 0.280576 1
4
 0.998521 0.289277 0.289277 1
4
 0.996767 0.286365 0.286365 1
4
 0.990786 0.281044 0.281044 1
4
 0.980932 0.277767 0.277767 1
4
 0.985805 0.277655 0.277655 1
4
 0.980368 0.274815 0.274815 1
4
 1 0.29597 0.29597 0.992271
4
 1 0.30237 0.30237 0.983144
4
 1 0.29992 0.29992 0.985445
4
 1 0.29781 0.29781 0.987203
4
 1 0.298711 0.298711 0.99162
4
 1 0.301924 0.301924 0.988154
4
 1 0.290836 0.290836 0.997087
4
 1 0.292351 0.292351 0.992737
4
 1 0.295101 0.295101 0.990252
4
 1 0.295993 0.295993 0.994684
4
 1 0.286418 0.286418 0.999795
4
 1 0.284876 0.284876 0.995869
4
 1 0.28791 0.28791 0.995432
4
 1 0.286607 0.286607 0.994838
4
 0.994204 0.281153 0.281153 1
4
 0.994878 0.279821 0.279821 1
4
 0.998877 0.282084 0.282084 1
4
 1 0.289918 0.289918 0.994483
4
 0.995153 0.283384 0.283384 1
4
 0.934743 0.250858 0.250858 1
4
 0.931674 0.249599 0.249599 1
4
 0.929219 0.244205 0.244205 1
4
 0.932908 0.246809 0.246809 1
4
 0.934835 0.24958 0.24958 1
4
 0.940035 0.257094 0.257094 1
4
 0.935536 0.253377 0.253377 1
4
 0.93871 0.253358 0.253358 1
4
 0.942731 0.257103 0.257103 1
4
 0.938989 0.258917 0.258917 1
4
 0.934495 0.255173 0.255173 1
4
 0.937296 0.260418 0.260418 1
4
 0.941315 0.261552 0.261552 1
4
 0.936949 0.255804 0.255804 1
4
 0.943786 0.262199 0.262199 1
4
 0.945816 0.262205 0.262205 1
4
 0.944155 0.259566 0.259566 1
4
 0.953774 0.286511 0.286511 1
4
 0.955128 0.284792 0.284792 1
4
 0.952016 0.283002 0.283002 1
4
 0.957578 0.288326 0.288326 1
4
 0.95374 0.288982 0.288982 1
4
 0.95869 0.292408 0.292408 1
4
 0.957322 0.289398 0.289398 1
4
 1 0.342574 0.342574 0.975516
4
 1 0.34853 0.34853 0.969064
4
 1 0.346232 0.346232 0.969747
4
 1 0.341521 0.341521 0.979705
4
 1 0.344248 0.344248 0.978039
4
 1 0.341247 0.341247 0.965772
4
 1 0.345278 0.345278 0.965
4
 1 0.341325 0.341325 0.968494
4
 1 0.346548 0.346548 0.96021
4
 1 0.34305 0.34305 0.961744
4
 1 0.338508 0.338508 0.970386
4
 1 0.34022 0.34022 0.963622
4
 1 0.335776 0.335776 0.969493
4
 1 0.334557 0.334557 0.973335
4
 1 0.342814 0.342814 0.971859
4
 1 0.338889 0.338889 0.975378
4
 1 0.335721 0.335721 0.98321
4
 1 0.33815 0.33815 0.981838
4
 1 0.335458 0.335458 0.980123
4
 1 0.348774 0.348774 0.965431
4
 1 0.352891 0.352891 0.960356
4
 1 0.342507 0.342507 0.96961
4
 1 0.350565 0.350565 0.961033
4
 1 0.347749 0.347749 0.961316
4
 1 0.334634 0.334634 0.976079
4
 1 0.335157 0.335157 0.977855
4
 1 0.358486 0.358486 0.943975
4
 1 0.36104 0.36104 0.943439
4
 1 0.357966 0.357966 0.94148
4
 1 0.354754 0.354754 0.952083
4
 1 0.357281 0.357281 0.951543
4
 1 0.351854 0.351854 0.956262
4
 1 0.357331 0.357331 0.947663
4
 1 0.351904 0.351904 0.952364
4
 1 0.354288 0.354288 0.945696
4
 1 0.35151 0.35151 0.94961
4
 1 0.345505 0.345505 0.958072
4
 1 0.348637 0.348637 0.953778
4
 1 0.345118 0.345118 0.955302
4
 1 0.338981 0.338981 0.960974
4
 1 0.341851 0.341851 0.957328
4
 1 0.337551 0.337551 0.965449
4
 1 0.350999 0.350999 0.9471
4
 1 0.350203 0.350203 0.944703
4
 1 0.347457 0.347457 0.948613
4
 1 0.34495 0.34495 0.953038
4
 1 0.276551 0.276551 0.994864
4
 1 0.278302 0.278302 0.991177
4
 1 0.277073 0.277073 0.989765
4
 1 0.273415 0.273415 0.999872
4
 1 0.279838 0.279838 0.994261
4
 1 0.279754 0.279754 0.991275
4
 1 0.274842 0.274842 0.999971
4
 1 0.276686 0.276686 0.999459
4
 1 0.28161 0.28161 0.990576
4
 1 0.283502 0.283502 0.992285
4
 1 0.284439 0.284439 0.988614
4
 1 0.281039 0.281039 0.997522
4
 1 0.278523 0.278523 0.998755
4
 1 0.284353 0.284353 0.985645
4
 1 0.280282 0.280282 0.986194
4
 1 0.28336 0.28336 0.983316
4
 1 0.286263 0.286263 0.987346
4
 1 0.287053 0.287053 0.989986
4
 1 0.28284 0.28284 0.996242
4
 1 0.292569 0.292569 0.971671
4
 1 0.288985 0.288985 0.979669
4
 1 0.290662 0.290662 0.972544
4
 1 0.287976 0.287976 0.977354
4
 1 0.29204 0.29204 0.976865
4
 1 0.294413 0.294413 0.971228
4
 1 0.292459 0.292459 0.968565
4
 1 0.296233 0.296233 0.967255
4
 1 0.286207 0.286207 0.981369
4
 1 0.290245 0.290245 0.980877
4
 1 0.288002 0.288002 0.986324
4
 1 0.282109 0.282109 0.981915
4
 1 0.28279 0.28279 0.978204
4
 1 0.280873 0.280873 0.979516
4
 1 0.287868 0.287868 0.974231
4
 1 0.288562 0.288562 0.970548
4
 1 0.285896 0.285896 0.975349
4
 1 0.284643 0.284643 0.972965
4
 0.943984 0.242472 0.242472 1
4
 0.942343 0.239003 0.239003 1
4
 0.938178 0.236616 0.236616 1
4
 0.938846 0.239075 0.239075 1
4
 0.947459 0.243752 0.243752 1
4
 0.946921 0.241891 0.241891 1
4
 0.94034 0.24117 0.24117 1
4
 0.948966 0.245888 0.245888 1
4
 0.949979 0.248069 0.248069 1
4
 0.945286 0.24562 0.24562 1
4
 0.938037 0.235274 0.235274 1
4
 0.946778 0.240519 0.240519 1
4
 0.925546 0.235974 0.235974 1
4
 0.927724 0.239902 0.239902 1
4
 0.931457 0.239357 0.239357 1
4
 0.931407 0.242461 0.242461 1
4
 0.932399 0.241369 0.241369 1
4
 0.924479 0.233384 0.233384 1
4
 0.93124 0.243899 0.243899 1
4
 0.981637 0.281502 0.281502 1
4
 0.9772 0.276404 0.276404 1
4
 0.978862 0.275385 0.275385 1
4
 0.986758 0.288297 0.288297 1
4
 0.981633 0.284424 0.284424 1
4
 0.994848 0.300801 0.300801 1
4
 1 0.308005 0.308005 0.999576
4
 0.992776 0.301843 0.301843 1
4
 0.995954 0.305839 0.305839 1
4
 1 0.305633 0.305633 0.999621
4
 0.991659 0.295085 0.295085 1
4
 0.986595 0.291763 0.291763 1
4
 0.98453 0.288022 0.288022 1
4
 0.993977 0.294238 0.294238 1
4
 0.996551 0.297509 0.297509 1
4
 0.988577 0.294902 0.294902 1
4
 0.998553 0.30071 0.30071 1
4
 0.991582 0.299292 0.299292 1
4
 0.999176 0.303165 0.303165 1
4
 0.983773 0.321701 0.321701 1
4
 0.979485 0.315364 0.315364 1
4
 0.973289 0.313733 0.313733 1
4
 0.975806 0.313016 0.313016 1
4
 0.97644 0.315169 0.315169 1
4
 0.967457 0.27353 0.27353 1
4
 0.966371 0.270999 0.270999 1
4
 0.963716 0.271242 0.271242 1
4
 0.961693 0.266957 0.266957 1
4
 0.958888 0.266823 0.266823 1
4
 0.970752 0.275166 0.275166 1
4
 0.968085 0.275412 0.275412 1
4
 0.973068 0.280233 0.280233 1
4
 0.975622 0.280926 0.280926 1
4
 0.964969 0.268552 0.268552 1
4
 0.968817 0.270254 0.270254 1
4
 0.972318 0.273547 0.273547 1
4
 0.974528 0.278326 0.278326 1
4
 0.961708 0.272181 0.272181 1
4
 0.969305 0.277888 0.277888 1
4
 0.96596 0.276109 0.276109 1
4
 0.959511 0.268659 0.268659 1
4
 0.961418 0.259322 0.259322 1
4
 0.958345 0.25859 0.25859 1
4
 0.960231 0.256683 0.256683 1
4
 0.955934 0.254002 0.254002 1
4
 0.95196 0.253136 0.253136 1
4
 0.954027 0.255444 0.255444 1
4
 0.951212 0.251494 0.251494 1
4
 0.96239 0.261501 0.261501 1
4
 0.966722 0.265059 0.265059 1
4
 0.964284 0.259572 0.259572 1
4
 0.968849 0.26439 0.26439 1
4
 0.959805 0.262648 0.262648 1
4
 0.963633 0.264312 0.264312 1
4
 0.955349 0.259543 0.259543 1
4
 0.954991 0.257591 0.257591 1
4
 0.964126 0.266222 0.266222 1
4
 0.957496 0.264414 0.264414 1
4
 0.955838 0.261418 0.261418 1
4
 0.970101 0.267233 0.267233 1
4
 0.971469 0.271174 0.271174 1
4
 1 0.326071 0.326071 0.968274
4
 1 0.3305 0.3305 0.966482
4
 1 0.332964 0.332964 0.963536
4
 1 0.33132 0.33132 0.960864
4
 1 0.328477 0.328477 0.96298
4
 1 0.334152 0.334152 0.959547
4
 1 0.327299 0.327299 0.970138
4
 1 0.31783 0.31783 0.974255
4
 1 0.321118 0.321118 0.970903
4
 1 0.324583 0.324583 0.966521
4
 1 0.320464 0.320464 0.975528
4
 1 0.316418 0.316418 0.978226
4
 1 0.323419 0.323419 0.973705
4
 1 0.333485 0.333485 0.965289
4
 1 0.332078 0.332078 0.969785
4
 1 0.329081 0.329081 0.972969
4
 1 0.327811 0.327811 0.971904
4
 1 0.33717 0.33717 0.958363
4
 1 0.338816 0.338816 0.958696
4
 1 0.334554 0.334554 0.966829
4
 1 0.315124 0.315124 0.972232
4
 1 0.316757 0.316757 0.973321
4
 1 0.311065 0.311065 0.977534
4
 1 0.309326 0.309326 0.981874
4
 1 0.312121 0.312121 0.980662
4
 1 0.319422 0.319422 0.961978
4
 1 0.32196 0.32196 0.959177
4
 1 0.325301 0.325301 0.954902
4
 1 0.319943 0.319943 0.957472
4
 1 0.318383 0.318383 0.968887
4
 1 0.319258 0.319258 0.964985
4
 1 0.317258 0.317258 0.963269
4
 1 0.312662 0.312662 0.973081
4
 1 0.31463 0.31463 0.968298
4
 1 0.320912 0.320912 0.966066
4
 1 0.323487 0.323487 0.965595
4
 1 0.325134 0.325134 0.957886
4
 1 0.324375 0.324375 0.961706
4
 1 0.331697 0.331697 0.951965
4
 1 0.327742 0.327742 0.957419
4
 1 0.333788 0.333788 0.953661
4
 1 0.330924 0.330924 0.955762
4
 1 0.338056 0.338056 0.948908
4
 1 0.329808 0.329808 0.959125
4
 1 0.335506 0.335506 0.955705
4
 1 0.336916 0.336916 0.952247
4
 1 0.342496 0.342496 0.950295
4
 1 0.340025 0.340025 0.954727
4
 1 0.339795 0.339795 0.950942
4
 1 0.344168 0.344168 0.950625
4
 1 0.343935 0.343935 0.946856
4
 0.954841 0.281571 0.281571 1
4
 0.951148 0.279215 0.279215 1
4
 0.961036 0.287971 0.287971 1
4
 0.95924 0.284807 0.284807 1
4
 0.953113 0.28235 0.28235 1
4
 0.958681 0.287662 0.287662 1
4
 0.949768 0.276694 0.276694 1
4
 0.957848 0.282236 0.282236 1
4
 0.953917 0.277673 0.277673 1
4
 0.949595 0.274646 0.274646 1
4
 0.943959 0.274116 0.274116 1
4
 0.948049 0.277459 0.277459 1
4
 0.945923 0.272347 0.272347 1
4
 0.9424 0.270791 0.270791 1
4
 0.93513 0.239008 0.239008 1
4
 0.935983 0.24225 0.24225 1
4
 0.940049 0.243418 0.243418 1
4
 0.930383 0.23673 0.23673 1
4
 0.934557 0.235346 0.235346 1
4
 0.931783 0.232703 0.232703 1
4
 0.927988 0.22934 0.22934 1
4
 0.932446 0.235121 0.235121 1
4
 0.940141 0.242179 0.242179 1
4
 0.930475 0.235524 0.235524 1
4
 0.927713 0.23288 0.23288 1
4
 0.925893 0.229121 0.229121 1
4
 0.925675 0.230373 0.230373 1
4
 0.959466 0.272964 0.272964 1
4
 0.963707 0.276903 0.276903 1
4
 0.963943 0.279941 0.279941 1
4
 0.954846 0.272157 0.272157 1
4
 0.952962 0.26973 0.26973 1
4
 0.955011 0.269737 0.269737 1
4
 0.959593 0.275702 0.275702 1
4
 0.963322 0.275172 0.275172 1
4
 0.956891 0.267747 0.267747 1
4
 0.95463 0.26805 0.26805 1
4
 0.956926 0.249825 0.249825 1
4
 0.962253 0.254701 0.254701 1
4
 0.961346 0.250856 0.250856 1
4
 0.956382 0.247917 0.247917 1
4
 0.966121 0.256762 0.256762 1
4
 0.964712 0.253677 0.253677 1
4
 0.957762 0.252011 0.252011 1
4
 0.953476 0.249379 0.249379 1
4
 0.951919 0.245299 0.245299 1
4
 0.958784 0.254247 0.254247 1
4
 0.966965 0.259009 0.259009 1
4
 0.967653 0.2617 0.2617 1
4
 0.956316 0.246311 0.246311 1
4
 0.964645 0.252033 0.252033 1
4
 0.949778 0.249107 0.249107 1
4
 0.94355 0.252522 0.252522 1
4
 0.939357 0.25032 0.25032 1
4
 0.941297 0.253131 0.253131 1
4
 0.949236 0.259191 0.259191 1
4
 0.945329 0.256873 0.256873 1
4
 0.947592 0.256255 0.256255 1
4
 0.939111 0.248669 0.248669 1
4
 0.94011 0.247549 0.247549 1
4
 0.947343 0.254565 0.254565 1
4
 0.944936 0.250367 0.250367 1
4
 0.946988 0.25265 0.25265 1
4
 0.936868 0.249268 0.249268 1
4
 0.935933 0.245391 0.245391 1
4
 0.942824 0.255794 0.255794 1
4
 0.941739 0.247066 0.247066 1
4
 0.940999 0.245464 0.245464 1
4
 0.950485 0.288501 0.288501 1
4
 0.952976 0.292217 0.292217 1
4
 0.958912 0.293837 0.293837 1
4
 0.957755 0.294379 0.294379 1
4
 0.949504 0.290311 0.290311 1
4
 1 0.315143 0.315143 0.963762
4
 1 0.316384 0.316384 0.958554
4
 1 0.314136 0.314136 0.962227
4
 1 0.307365 0.307365 0.97775
4
 1 0.310578 0.310578 0.97358
4
 1 0.306911 0.306911 0.982731
4
 1 0.309299 0.309299 0.972944
4
 1 0.303618 0.303618 0.979398
4
 1 0.308311 0.308311 0.971395
4
 1 0.305631 0.305631 0.974341
4
 1 0.311534 0.311534 0.967252
4
 1 0.295696 0.295696 0.972425
4
 1 0.295588 0.295588 0.975841
4
 1 0.291046 0.291046 0.983501
4
 1 0.294198 0.294198 0.980252
4
 1 0.300647 0.300647 0.965489
4
 1 0.29799 0.29799 0.97021
4
 1 0.300537 0.300537 0.96888
4
 1 0.301981 0.301981 0.96903
4
 1 0.30583 0.30583 0.963029
4
 1 0.299313 0.299313 0.973768
4
 1 0.296481 0.296481 0.978018
4
 1 0.297906 0.297906 0.97817
4
 1 0.300955 0.300955 0.977796
4
 1 0.298838 0.298838 0.979541
4
 1 0.30295 0.30295 0.972748
4
 1 0.304585 0.304585 0.967888
4
 1 0.290109 0.290109 0.989553
4
 1 0.293252 0.293252 0.986284
4
 1 0.294169 0.294169 0.987666
4
 1 0.291925 0.291925 0.985695
4
 1 0.29601 0.29601 0.983816
4
 1 0.29904 0.29904 0.98344
4
 1 0.303155 0.303155 0.97662
4
 1 0.312761 0.312761 0.962024
4
 1 0.311716 0.311716 0.960122
4
 1 0.30784 0.30784 0.96864
4
 1 0.309501 0.309501 0.963801
4
 1 0.306811 0.306811 0.966724
4
 0.979412 0.260375 0.260375 1
4
 0.975073 0.259667 0.259667 1
4
 0.978474 0.261007 0.261007 1
4
 0.970969 0.256004 0.256004 1
4
 0.983987 0.264287 0.264287 1
4
 0.989962 0.266988 0.266988 1
4
 0.990469 0.268918 0.268918 1
4
 0.979628 0.263568 0.263568 1
4
 0.973534 0.261659 0.261659 1
4
 0.972114 0.258515 0.258515 1
4
 0.978373 0.265067 0.265067 1
4
 0.982354 0.26653 0.26653 1
4
 0.98952 0.269571 0.269571 1
4
 0.98578 0.267906 0.267906 1
4
 0.977541 0.296303 0.296303 1
4
 0.980469 0.298384 0.298384 1
4
 0.976353 0.292031 0.292031 1
4
 0.974623 0.294236 0.294236 1
4
 0.972874 0.289891 0.289891 1
4
 0.980693 0.295868 0.295868 1
4
 0.980293 0.300155 0.300155 1
4
 0.979629 0.301584 0.301584 1
4
 0.974448 0.295982 0.295982 1
4
 0.982562 0.303702 0.303702 1
4
 0.983453 0.299714 0.299714 1
4
 0.986789 0.306871 0.306871 1
4
 0.986443 0.304175 0.304175 1
4
 0.983024 0.307606 0.307606 1
4
 0.976704 0.29948 0.29948 1
4
 0.978216 0.303792 0.303792 1
4
 0.98612 0.308332 0.308332 1
4
 0.974655 0.287853 0.287853 1
4
 0.974307 0.284464 0.284464 1
4
 0.970945 0.282643 0.282643 1
4
 0.971183 0.285744 0.285744 1
4
 0.978913 0.288872 0.288872 1
4
 0.971516 0.287408 0.287408 1
4
 0.979325 0.293333 0.293333 1
4
 0.970932 0.280942 0.280942 1
4
 0.9789 0.287134 0.287134 1
4
 0.976852 0.283452 0.283452 1
4
 0.967818 0.282205 0.282205 1
4
 0.984846 0.312361 0.312361 1
4
 0.986457 0.317558 0.317558 1
4
 0.982715 0.313697 0.313697 1
4
 0.980029 0.308488 0.308488 1
4
 0.989158 0.318639 0.318639 1
4
 0.990155 0.317056 0.317056 1
4
 0.979339 0.306238 0.306238 1
4
 0.989457 0.314744 0.314744 1
4
 0.987252 0.310815 0.310815 1
4
 0.987936 0.322952 0.322952 1
4
 0.983629 0.31659 0.31659 1
4
 0.991277 0.325298 0.325298 1
4
 0.990078 0.321577 0.321577 1
4
 0.984188 0.319026 0.319026 1
4
 0.99184 0.327801 0.327801 1
4
 0.964063 0.288651 0.288651 1
4
 0.968699 0.292886 0.292886 1
4
 0.970199 0.297102 0.297102 1
4
 0.963501 0.291544 0.291544 1
4
 0.966657 0.294275 0.294275 1
4
 0.966889 0.289668 0.289668 1
4
 0.965154 0.285391 0.285391 1
4
 0.958313 0.280865 0.280865 1
4
 0.962381 0.283664 0.283664 1
4
 0.969795 0.289578 0.289578 1
4
 0.973043 0.298149 0.298149 1
4
 0.97722 0.307548 0.307548 1
4
 0.976218 0.310413 0.310413 1
4
 0.97553 0.308149 0.308149 1
4
 0.963686 0.280982 0.280982 1
4
 0.965273 0.283575 0.283575 1
4
 0.972864 0.303032 0.303032 1
4
 0.970992 0.299563 0.299563 1
4
 1 0.313617 0.313617 0.995075
4
 1 0.314689 0.314689 0.990573
4
 1 0.310545 0.310545 0.999667
4
 1 0.312312 0.312312 0.991001
4
 1 0.309081 0.309081 0.995245
4
 1 0.318631 0.318631 0.990491
4
 1 0.31972 0.31972 0.98601
4
 1 0.322634 0.322634 0.987188
4
 1 0.324326 0.324326 0.981877
4
 1 0.323074 0.323074 0.980802
4
 1 0.316848 0.316848 0.990449
4
 1 0.319735 0.319735 0.991632
4
 1 0.312676 0.312676 0.999542
4
 1 0.315571 0.315571 0.998886
4
 1 0.318527 0.318527 0.995178
4
 1 0.318331 0.318331 0.982596
4
 1 0.31553 0.31553 0.986393
4
 1 0.321266 0.321266 0.98076
4
 1 0.322528 0.322528 0.991859
4
 1 0.327221 0.327221 0.983675
4
 1 0.327733 0.327733 0.985465
4
 1 0.32545 0.32545 0.983008
4
 0.993991 0.326405 0.326405 1
4
 1 0.334274 0.334274 0.999722
4
 0.998192 0.331076 0.331076 1
4
 0.996985 0.32729 0.32729 1
4
 0.993789 0.32107 0.32107 1
4
 0.996779 0.325282 0.325282 1
4
 0.945908 0.277194 0.277194 1
4
 0.940272 0.270532 0.270532 1
4
 0.952122 0.27297 0.27297 1
4
 0.950055 0.273312 0.273312 1
4
 0.956855 0.276526 0.276526 1
4
 0.958431 0.279078 0.279078 1
4
 0.947808 0.269994 0.269994 1
4
 0.943948 0.266092 0.266092 1
4
 0.947995 0.267251 0.267251 1
4
 0.954591 0.273169 0.273169 1
4
 0.942229 0.268786 0.268786 1
4
 0.941899 0.266425 0.266425 1
4
 0.938391 0.264902 0.264902 1
4
 0.942085 0.263719 0.263719 1
4
 0.971543 0.263817 0.263817 1
4
 0.969436 0.257967 0.257967 1
4
 0.975338 0.265704 0.265704 1
4
 0.975678 0.264505 0.264505 1
4
 0.973606 0.270489 0.270489 1
4
 0.976033 0.268465 0.268465 1
4
 0.975262 0.269492 0.269492 1
4
 0.977196 0.279273 0.279273 1
4
 0.976638 0.273467 0.273467 1
4
 0.98147 0.287844 0.287844 1
4
 0.983603 0.294371 0.294371 1
4
 0.986517 0.295923 0.295923 1
4
 0.986593 0.298753 0.298753 1
4
 0.986669 0.30161 0.30161 1
4
 0.948158 0.264874 0.264874 1
4
 0.952448 0.264581 0.264581 1
4
 0.950775 0.261918 0.261918 1
4
 0.953051 0.261288 0.261288 1
4
 0.948529 0.262215 0.262215 1
4
 0.951044 0.256385 0.256385 1
4
 0.948628 0.252158 0.252158 1
4
 0.945829 0.248258 0.248258 1
4
 1 0.334173 0.334173 0.996719
4
 1 0.336951 0.336951 0.990338
4
 1 0.33964 0.33964 0.988655
4
 1 0.32961 0.32961 0.999009
4
 1 0.334332 0.334332 0.992408
4
 0.992574 0.315488 0.315488 1
4
 0.997784 0.323667 0.323667 1
4
 0.997932 0.321198 0.321198 1
4
 0.99376 0.313012 0.313012 1
4
 0.995707 0.317188 0.317188 1
4
 0.990015 0.308812 0.308812 1
4
 1 0.327702 0.327702 0.995141
4
 1 0.329963 0.329963 0.994
4
 1 0.33235 0.33235 0.992613
4
 1 0.325108 0.325108 0.999067
4
 0.951585 0.295623 0.295623 1
4
 0.955678 0.298707 0.298707 1
4
 0.956857 0.297777 0.297777 1
4
 0.956766 0.296226 0.296226 1
4
 0.955269 0.300305 0.300305 1
4
 0.96345 0.306462 0.306462 1
4
 0.964638 0.305508 0.305508 1
4
 0.970672 0.310932 0.310932 1
4
 0.96056 0.302493 0.302493 1
4
 0.967133 0.304809 0.304809 1
4
 0.961654 0.299981 0.299981 1
4
 0.967761 0.306906 0.306906 1
4
 1 0.330009 0.330009 0.989948
4
 1 0.324513 0.324513 0.993242
4
 1 0.325154 0.325154 0.994994
4
 1 0.32975 0.32975 0.986839
4
 1 0.33469 0.33469 0.987433
4
 1 0.332025 0.332025 0.985708
4
 1 0.339802 0.339802 0.984378
4
 0.984503 0.274224 0.274224 1
4
 0.983725 0.275274 0.275274 1
4
 0.989852 0.2768 0.2768 1
4
 0.979072 0.27142 0.27142 1
4
 0.98517 0.272925 0.272925 1
4
 0.980187 0.269165 0.269165 1
4
 1 0.297893 0.297893 0.997859
4
 1 0.301947 0.301947 0.990557
4
 1 0.300427 0.300427 0.995282
4
 1 0.299582 0.299582 0.999114
4
 1 0.303659 0.303659 0.991802
4
 1 0.307952 0.307952 0.985876
4
 1 0.304407 0.304407 0.995912
4
 1 0.306402 0.306402 0.990578
4
 0.967042 0.303221 0.303221 1
4
 0.973183 0.310221 0.310221 1
4
 0.971867 0.305855 0.305855 1
4
 0.962725 0.297868 0.297868 1
4
 0.967528 0.300456 0.300456 1
4
 0.962513 0.29426 0.29426 1
4
 0.965666 0.297016 0.297016 1
4
 0.966361 0.30101 0.30101 1
4
 0.969313 0.300149 0.300149 1
4
 0.960917 0.279281 0.279281 1
4
 0.964289 0.293959 0.293959 1
4
 0.992685 0.304304 0.304304 1
4
 0.989592 0.3032 0.3032 1
4
 0.996516 0.311392 0.311392 1
4
 0.992761 0.307214 0.307214 1
4
 1 0.318328 0.318328 0.999115
4
 0.999124 0.318677 0.318677 1
4
 0.993412 0.310262 0.310262 1
4
 1 0.321944 0.321944 0.997161
4
 1 0.326495 0.326495 0.988988
4
 0.994505 0.277717 0.277717 1
4
 0.985513 0.271693 0.271693 1
4
 0.989523 0.273193 0.273193 1
4
 0.99727 0.277114 0.277114 1
4
 0.9935 0.275402 0.275402 1
4
 0.984518 0.269429 0.269429 1
4
 0.995529 0.272326 0.272326 1
4
 0.992274 0.2726 0.2726 1
4
 0.923717 0.230769 0.230769 1
4
 0.921904 0.227044 0.227044 1
4
 1 0.315927 0.315927 0.98302
4
 1 0.314707 0.314707 0.981944
4
 1 0.321671 0.321671 0.977406
4
 1 0.309907 0.309907 0.991045
4
 1 0.311938 0.311938 0.985738
4
 1 0.30871 0.30871 0.98996
4
 1 0.331933 0.331933 0.975181
4
 1 0.330136 0.330136 0.974521
4
 1 0.331245 0.331245 0.980828
4
 1 0.328938 0.328938 0.978383
4
 1 0.325894 0.325894 0.97665
1
 1

